# Solution for model GasLib-40
# Objective value = 4.8042036149020277e+01
loadshed[innode_1] 0
loadshed[innode_2] 0
loadshed[innode_3] 0
loadshed[innode_4] 0
loadshed[innode_5] 0
loadshed[innode_6] 0
loadshed[innode_7] 0
loadshed[innode_8] 0
loadshed[source_1] -1.0713630830190346e-01
loadshed[source_2] 5.3470476826232738e-02
loadshed[source_3] 3.5755571530867536e-01
loadshed[sink_1] 5.4871188032354690e-02
loadshed[sink_2] 0
loadshed[sink_3] 0
loadshed[sink_4] 0
loadshed[sink_5] 0
loadshed[sink_6] 0
loadshed[sink_7] 0
loadshed[sink_8] 0
loadshed[sink_9] 0
loadshed[sink_10] 0
loadshed[sink_11] 0
loadshed[sink_12] 1
loadshed[sink_13] 0
loadshed[sink_14] 0
loadshed[sink_15] 0
loadshed[sink_16] 0
loadshed[sink_17] 0
loadshed[sink_18] 0
loadshed[sink_19] 0
loadshed[sink_20] 0
loadshed[sink_21] 1
loadshed[sink_22] 0
loadshed[sink_23] 0
loadshed[sink_24] 8.8273102235359857e-01
loadshed[sink_25] 0
loadshed[sink_26] 0
loadshed[sink_27] 0
loadshed[sink_28] 0
loadshed[sink_29] 0
flow[source_1,sink_3] 1.7502748651731133e+02
flow[innode_1,sink_16] 1.6354166666666970e+01
flow[innode_6,sink_13] 1.2914971243068806e+01
flow[sink_13,sink_14] -3.4391954235978623e+00
flow[sink_14,sink_10] -1.9793362090264964e+01
flow[sink_25,sink_26] 0
flow[sink_26,sink_9] 6.7649633764466671e+01
flow[sink_9,sink_18] 51.2954670978
flow[sink_26,sink_4] -8.4003800431133328e+01
flow[sink_4,sink_20] -1.0035796709779981e+02
flow[sink_18,sink_6] 3.4941300431133328e+01
flow[sink_25,innode_8] -1.4231915318397495e+02
flow[sink_6,sink_7] -1.3223827014587471e+01
flow[sink_6,sink_22] 3.1810960779054202e+01
flow[sink_7,sink_24] 1.9178364052588543e+00
flow[sink_22,sink_1] 1.5456794112387534e+01
flow[sink_24,sink_21] 0
flow[sink_21,sink_12] 0
flow[sink_7,sink_5] -3.1495830086513035e+01
flow[sink_5,sink_17] -4.7849996753179738e+01
flow[sink_17,sink_4] 0
flow[sink_17,sink_8] -6.4204163419846410e+01
flow[sink_3,sink_23] 16.3541666666697
flow[sink_8,sink_20] -8.0558330086513081e+01
flow[sink_25,sink_20] 1.9727046385097972e+02
flow[sink_25,sink_15] -8.4220448576740523e+01
flow[sink_15,sink_29] -5.6834212340980514e+01
flow[sink_29,sink_28] 1.6354166666667879e+01
flow[sink_29,sink_2] 6.0094569569093323e+01
flow[sink_2,sink_15] 4.3740402902426695e+01
flow[sink_29,innode_7] -1.4963711524340840e+02
flow[innode_4,sink_19] 3.8638703494891047e+01
flow[sink_19,innode_3] 0
flow[innode_4,innode_5] 6.2925491928706265e+01
flow[sink_27,innode_5] -6.2925491928706265e+01
flow[sink_27,sink_19] 4.6571325262039522e+01
flow[sink_10,sink_11] 3.2708333333333641e+01
flow[sink_10,innode_2] -6.8855862090264850e+01
flow[sink_10,innode_3] 0
flow[innode_6,sink_25] -1.2914971243068806e+01
flow[sink_11,innode_1] 1.6354166666666970e+01
flow[sink_19,innode_2] 6.8855862090264850e+01
flow[source_3,innode_4] 1.0156419542359725e+02
flow[source_2,innode_7] 1.4963711524340840e+02
flow[sink_3,innode_8] 1.4231915318397495e+02
pressure[innode_1] 7.5656879666345930e+01
pressure[innode_2] 7.9447897669444330e+01
pressure[innode_3] 7.9447897669444330e+01
pressure[innode_4] 81.01325
pressure[innode_5] 8.0969966528579974e+01
pressure[innode_6] 7.4937426084855787e+01
pressure[innode_7] 81.01325
pressure[innode_8] 8.0428199975495986e+01
pressure[source_1] 81.01325
pressure[source_2] 81.01325
pressure[source_3] 81.01325
pressure[sink_1] 1.0132500000000007e+00
pressure[sink_2] 7.5488780101943874e+01
pressure[sink_3] 8.0428199975495986e+01
pressure[sink_4] 2.0546023579631331e+01
pressure[sink_5] 1.6307899219058779e+01
pressure[sink_6] 3.0274981597556891e+00
pressure[sink_7] 3.2090297838330919e+00
pressure[sink_8] 2.2294967991605724e+01
pressure[sink_9] 5.8165578015740635e+00
pressure[sink_10] 7.5808580973949475e+01
pressure[sink_11] 7.5656879666345930e+01
pressure[sink_12] 1.01325
pressure[sink_13] 7.4866228006684935e+01
pressure[sink_14] 7.4872382739850138e+01
pressure[sink_15] 7.5345977326696982e+01
pressure[sink_16] 7.4635229831528250e+01
pressure[sink_17] 1.9872378107459994e+01
pressure[sink_18] 3.9605349151901263e+00
pressure[sink_19] 7.9447897669444330e+01
pressure[sink_20] 2.7908750685005018e+01
pressure[sink_21] 1.01325
pressure[sink_22] 2.0186488657218140e+00
pressure[sink_23] 80.2634819638362
pressure[sink_24] 1.01325
pressure[sink_25] 7.4937426084855787e+01
pressure[sink_26] 9.8655629812758949e+00
pressure[sink_27] 8.0447801219378562e+01
pressure[sink_28] 7.6715761096347123e+01
pressure[sink_29] 7.7011043369964312e+01
interdiction[source_1,sink_3] 0
interdiction[innode_1,sink_16] 0
interdiction[innode_6,sink_13] 0
interdiction[sink_13,sink_14] 0
interdiction[sink_14,sink_10] 0
interdiction[sink_25,sink_26] 1
interdiction[sink_26,sink_9] 0
interdiction[sink_9,sink_18] 0
interdiction[sink_26,sink_4] 0
interdiction[sink_4,sink_20] 0
interdiction[sink_18,sink_6] 0
interdiction[sink_25,innode_8] 0
interdiction[sink_6,sink_7] 0
interdiction[sink_6,sink_22] 0
interdiction[sink_7,sink_24] 0
interdiction[sink_22,sink_1] 0
interdiction[sink_24,sink_21] 0
interdiction[sink_21,sink_12] 0
interdiction[sink_7,sink_5] 0
interdiction[sink_5,sink_17] 0
interdiction[sink_17,sink_4] 1
interdiction[sink_17,sink_8] 0
interdiction[sink_3,sink_23] 0
interdiction[sink_8,sink_20] 0
interdiction[sink_25,sink_20] 0
interdiction[sink_25,sink_15] 0
interdiction[sink_15,sink_29] 0
interdiction[sink_29,sink_28] 0
interdiction[sink_29,sink_2] 0
interdiction[sink_2,sink_15] 0
interdiction[sink_29,innode_7] 0
interdiction[innode_4,sink_19] 0
interdiction[sink_19,innode_3] 0
interdiction[innode_4,innode_5] 0
interdiction[sink_27,innode_5] 0
interdiction[sink_27,sink_19] 0
interdiction[sink_10,sink_11] 0
interdiction[sink_10,innode_2] 0
interdiction[sink_10,innode_3] 1
interdiction[innode_6,sink_25] 0
interdiction[sink_11,innode_1] 0
interdiction[sink_19,innode_2] 0
interdiction[source_3,innode_4] 0
interdiction[source_2,innode_7] 0
interdiction[sink_3,innode_8] 0
WCcheckFlow[source_1,sink_3] 39
WCcheckFlow[innode_1,sink_16] 1
WCcheckFlow[innode_6,sink_13] 13
WCcheckFlow[sink_13,sink_14] 12
WCcheckFlow[sink_14,sink_10] 11
WCcheckFlow[sink_25,sink_26] 0
WCcheckFlow[sink_26,sink_9] 12
WCcheckFlow[sink_9,sink_18] 11
WCcheckFlow[sink_26,sink_4] -13
WCcheckFlow[sink_4,sink_20] -14
WCcheckFlow[sink_18,sink_6] 10
WCcheckFlow[sink_25,innode_8] -36
WCcheckFlow[sink_6,sink_7] 7
WCcheckFlow[sink_6,sink_22] 2
WCcheckFlow[sink_7,sink_24] 3
WCcheckFlow[sink_22,sink_1] 1
WCcheckFlow[sink_24,sink_21] 2
WCcheckFlow[sink_21,sink_12] 1
WCcheckFlow[sink_7,sink_5] 3
WCcheckFlow[sink_5,sink_17] 2
WCcheckFlow[sink_17,sink_4] 0
WCcheckFlow[sink_17,sink_8] 1
WCcheckFlow[sink_3,sink_23] 1
WCcheckFlow[sink_8,sink_20] 0
WCcheckFlow[sink_25,sink_20] 15
WCcheckFlow[sink_25,sink_15] 6
WCcheckFlow[sink_15,sink_29] 5
WCcheckFlow[sink_29,sink_28] 1
WCcheckFlow[sink_29,sink_2] 1
WCcheckFlow[sink_2,sink_15] 0
WCcheckFlow[sink_29,innode_7] 2
WCcheckFlow[innode_4,sink_19] -4
WCcheckFlow[sink_19,innode_3] 1
WCcheckFlow[innode_4,innode_5] 2
WCcheckFlow[sink_27,innode_5] -1
WCcheckFlow[sink_27,sink_19] 0
WCcheckFlow[sink_10,sink_11] 3
WCcheckFlow[sink_10,innode_2] 7
WCcheckFlow[sink_10,innode_3] 0
WCcheckFlow[innode_6,sink_25] -14
WCcheckFlow[sink_11,innode_1] 2
WCcheckFlow[sink_19,innode_2] -6
WCcheckFlow[source_3,innode_4] -1
WCcheckFlow[source_2,innode_7] -1
WCcheckFlow[sink_3,innode_8] 37
